70
1236
4
31
51
39
22
0 3
0 4
0 6
0 7
0 8
0 9
0 10
0 12
0 19
0 23
0 25
0 26
0 27
0 29
0 30
0 31
0 33
0 35
0 36
0 37
0 38
0 41
0 44
0 47
0 49
0 50
0 51
0 56
0 57
0 58
0 60
0 61
0 62
0 63
0 65
0 66
0 68
1 6
1 7
1 8
1 9
1 10
1 11
1 13
1 14
1 16
1 19
1 20
1 25
1 27
1 29
1 30
1 31
1 32
1 34
1 35
1 41
1 42
1 44
1 45
1 48
1 49
1 51
1 52
1 53
1 54
1 55
1 56
1 57
1 58
1 59
1 61
1 62
1 65
1 68
2 5
2 6
2 7
2 8
2 9
2 11
2 16
2 18
2 19
2 22
2 24
2 25
2 26
2 27
2 29
2 30
2 31
2 35
2 37
2 38
2 39
2 40
2 46
2 47
2 48
2 49
2 50
2 57
2 58
2 59
2 60
2 61
2 62
2 63
2 64
2 65
2 68
3 5
3 10
3 13
3 14
3 15
3 17
3 19
3 20
3 21
3 22
3 25
3 27
3 29
3 30
3 31
3 32
3 33
3 39
3 40
3 41
3 43
3 50
3 51
3 55
3 56
3 60
3 62
3 65
4 7
4 8
4 11
4 12
4 13
4 16
4 17
4 18
4 22
4 23
4 25
4 26
4 27
4 30
4 32
4 34
4 35
4 36
4 38
4 41
4 44
4 46
4 47
4 48
4 51
4 52
4 53
4 54
4 55
4 57
4 64
4 65
4 67
4 68
4 69
5 6
5 8
5 9
5 11
5 12
5 13
5 14
5 16
5 19
5 20
5 26
5 27
5 28
5 29
5 30
5 34
5 35
5 39
5 42
5 44
5 45
5 52
5 54
5 56
5 60
5 61
5 62
5 65
5 66
5 67
6 8
6 12
6 13
6 18
6 21
6 22
6 24
6 25
6 26
6 27
6 30
6 34
6 35
6 36
6 37
6 38
6 39
6 41
6 44
6 47
6 49
6 50
6 53
6 54
6 55
6 56
6 59
6 60
6 67
7 8
7 10
7 13
7 14
7 15
7 18
7 20
7 21
7 23
7 24
7 27
7 29
7 31
7 32
7 33
7 34
7 35
7 39
7 41
7 44
7 45
7 46
7 48
7 49
7 54
7 55
7 56
7 57
7 58
7 62
7 65
7 67
7 68
7 69
8 10
8 13
8 14
8 16
8 17
8 18
8 19
8 21
8 23
8 24
8 26
8 27
8 28
8 29
8 30
8 34
8 41
8 44
8 45
8 46
8 47
8 50
8 54
8 55
8 56
8 57
8 59
8 60
8 63
8 65
8 67
8 68
8 69
9 12
9 13
9 14
9 16
9 18
9 19
9 21
9 22
9 28
9 33
9 37
9 38
9 39
9 41
9 42
9 44
9 47
9 52
9 53
9 55
9 56
9 58
9 60
9 65
9 67
9 69
10 12
10 13
10 15
10 16
10 17
10 18
10 19
10 20
10 22
10 24
10 26
10 27
10 28
10 30
10 32
10 34
10 35
10 36
10 39
10 40
10 41
10 42
10 43
10 45
10 47
10 54
10 55
10 59
10 60
10 62
10 64
10 65
10 67
10 68
10 69
11 21
11 23
11 24
11 27
11 28
11 30
11 31
11 32
11 34
11 35
11 36
11 38
11 40
11 45
11 46
11 47
11 49
11 50
11 51
11 53
11 55
11 57
11 58
11 61
11 63
11 65
11 66
11 67
12 16
12 17
12 18
12 21
12 26
12 29
12 31
12 32
12 37
12 40
12 41
12 42
12 46
12 47
12 48
12 49
12 50
12 52
12 54
12 56
12 57
12 59
12 60
12 61
12 62
12 63
12 65
12 66
12 67
12 68
12 69
13 15
13 16
13 18
13 20
13 21
13 22
13 24
13 26
13 27
13 33
13 34
13 36
13 37
13 38
13 39
13 40
13 41
13 43
13 44
13 46
13 48
13 50
13 53
13 55
13 58
13 60
13 61
13 62
13 64
13 65
13 67
13 68
14 16
14 18
14 20
14 21
14 22
14 25
14 26
14 27
14 29
14 30
14 31
14 32
14 35
14 36
14 40
14 42
14 43
14 45
14 46
14 47
14 49
14 50
14 52
14 57
14 58
14 59
14 60
14 61
14 63
14 67
14 69
15 17
15 18
15 20
15 21
15 23
15 25
15 30
15 31
15 34
15 37
15 38
15 39
15 42
15 44
15 45
15 47
15 48
15 50
15 52
15 54
15 55
15 57
15 58
15 60
15 61
15 65
15 69
16 23
16 24
16 25
16 28
16 29
16 30
16 31
16 33
16 35
16 38
16 39
16 40
16 43
16 44
16 47
16 49
16 52
16 56
16 57
16 58
16 59
16 63
16 65
16 66
16 69
17 18
17 19
17 20
17 22
17 23
17 24
17 28
17 29
17 31
17 33
17 35
17 36
17 38
17 40
17 42
17 44
17 46
17 47
17 48
17 49
17 50
17 51
17 53
17 56
17 58
17 61
17 63
17 64
17 68
17 69
18 19
18 20
18 22
18 23
18 27
18 28
18 31
18 34
18 35
18 36
18 37
18 38
18 42
18 44
18 46
18 47
18 51
18 54
18 55
18 57
18 60
18 62
18 63
18 64
18 69
19 20
19 21
19 23
19 27
19 29
19 31
19 32
19 34
19 35
19 38
19 41
19 42
19 50
19 52
19 53
19 56
19 59
19 60
19 62
19 63
19 64
19 66
19 67
19 69
20 22
20 25
20 26
20 27
20 29
20 30
20 32
20 36
20 37
20 39
20 40
20 41
20 42
20 43
20 45
20 46
20 48
20 49
20 53
20 54
20 56
20 57
20 59
20 62
20 63
20 65
20 66
20 67
20 68
21 23
21 24
21 26
21 28
21 30
21 33
21 36
21 40
21 44
21 47
21 48
21 49
21 51
21 53
21 57
21 60
21 63
21 65
21 66
21 67
21 69
22 24
22 27
22 31
22 32
22 34
22 36
22 38
22 40
22 41
22 42
22 43
22 44
22 46
22 47
22 49
22 50
22 51
22 52
22 56
22 57
22 58
22 59
22 60
22 61
22 65
22 67
22 69
23 28
23 29
23 32
23 33
23 37
23 39
23 40
23 41
23 43
23 45
23 48
23 50
23 51
23 53
23 54
23 55
23 57
23 59
23 60
23 61
23 64
23 67
23 68
24 25
24 28
24 40
24 43
24 44
24 46
24 50
24 51
24 52
24 53
24 55
24 58
24 59
24 60
24 61
24 62
24 63
24 65
24 67
25 27
25 28
25 29
25 30
25 31
25 32
25 34
25 38
25 41
25 42
25 44
25 46
25 47
25 49
25 50
25 51
25 53
25 54
25 58
25 60
25 66
25 68
25 69
26 27
26 29
26 31
26 32
26 36
26 38
26 39
26 40
26 42
26 46
26 47
26 49
26 51
26 53
26 54
26 55
26 56
26 62
26 69
27 28
27 29
27 30
27 32
27 36
27 37
27 38
27 40
27 41
27 42
27 43
27 44
27 45
27 47
27 49
27 52
27 53
27 55
27 56
27 57
27 58
27 60
27 63
27 67
27 68
27 69
28 30
28 32
28 33
28 34
28 35
28 36
28 37
28 39
28 40
28 45
28 47
28 48
28 50
28 51
28 52
28 57
28 58
28 59
28 62
28 63
28 65
28 67
28 69
29 31
29 33
29 34
29 36
29 37
29 38
29 39
29 45
29 46
29 47
29 49
29 54
29 57
29 58
29 59
29 60
29 62
29 64
29 65
29 66
29 67
29 68
30 33
30 34
30 39
30 42
30 43
30 44
30 46
30 48
30 50
30 51
30 52
30 53
30 54
30 59
30 60
30 61
30 63
30 65
30 67
30 68
31 34
31 35
31 36
31 37
31 38
31 39
31 40
31 41
31 44
31 45
31 46
31 48
31 49
31 50
31 51
31 52
31 56
31 60
31 61
31 63
31 64
31 66
31 67
31 69
32 34
32 35
32 37
32 38
32 41
32 43
32 44
32 45
32 46
32 48
32 55
32 56
32 57
32 58
32 59
32 60
32 61
32 67
33 34
33 38
33 39
33 40
33 44
33 47
33 49
33 50
33 54
33 56
33 57
33 58
33 59
33 60
33 65
33 66
34 37
34 38
34 40
34 41
34 42
34 43
34 47
34 49
34 55
34 56
34 57
34 58
34 59
34 61
34 63
34 65
34 66
34 69
35 37
35 44
35 46
35 50
35 55
35 56
35 57
35 59
35 62
35 67
35 68
35 69
36 39
36 42
36 45
36 49
36 50
36 53
36 54
36 55
36 58
36 60
36 62
36 63
36 65
36 69
37 39
37 40
37 41
37 42
37 43
37 44
37 48
37 53
37 57
37 58
37 59
37 61
37 63
37 65
37 69
38 40
38 41
38 42
38 43
38 44
38 45
38 46
38 47
38 49
38 52
38 61
38 63
38 66
38 67
38 68
39 40
39 41
39 43
39 45
39 46
39 48
39 49
39 54
39 55
39 56
39 61
39 62
39 63
39 64
39 65
39 66
39 68
39 69
40 43
40 45
40 46
40 47
40 50
40 51
40 53
40 54
40 55
40 56
40 57
40 59
40 62
40 63
40 65
40 66
40 68
40 69
41 45
41 51
41 52
41 53
41 55
41 59
41 60
41 61
41 62
41 67
41 69
42 44
42 46
42 48
42 52
42 53
42 56
42 57
42 58
42 59
42 60
42 61
42 62
42 67
42 68
43 46
43 47
43 49
43 53
43 54
43 55
43 56
43 57
43 59
43 60
43 68
44 45
44 49
44 52
44 53
44 57
44 58
44 59
44 61
44 62
44 65
44 69
45 46
45 47
45 49
45 50
45 51
45 52
45 53
45 57
45 59
45 60
45 63
45 67
45 68
46 47
46 48
46 49
46 51
46 52
46 54
46 57
46 58
46 59
46 63
46 67
46 69
47 49
47 51
47 54
47 58
47 62
47 63
47 65
47 66
48 49
48 50
48 52
48 53
48 54
48 55
48 56
48 57
48 61
48 62
48 63
48 65
48 67
49 50
49 52
49 54
49 55
49 56
49 57
49 61
49 62
49 63
49 65
49 66
49 68
50 55
50 57
50 58
50 59
50 60
50 61
50 63
50 64
50 67
50 69
51 52
51 56
51 57
51 58
51 61
51 63
51 65
51 69
52 54
52 55
52 56
52 57
52 58
52 60
52 62
52 63
52 65
52 67
52 68
53 54
53 57
53 62
53 65
53 67
53 68
54 57
54 62
54 63
54 64
54 65
54 66
54 67
55 57
55 58
55 59
55 60
55 61
55 64
55 68
56 58
56 59
56 61
56 63
56 64
56 67
56 68
56 69
57 58
57 60
57 61
57 62
57 64
57 66
57 67
57 68
57 69
58 59
58 61
58 62
58 67
58 68
59 61
59 63
59 65
59 68
60 62
60 64
60 65
60 67
60 69
61 62
61 65
61 68
62 64
62 69
63 65
63 67
63 68
63 69
64 67
64 68
64 69
65 67
66 69
67 68
67 69
16 25 19 61 69 33 57 28 31 1 12 42 51 23 14 41 10 63 8 13 52
34 11 40 17 15 55 20 4 50 49 62 58 21 46 36 65 67 54 7 47 6
37 64 9 59 2 35 45 0 53 26 60 27 22 56 44 48 38 68 5 29 39
30 18 32 66 43 24 3
